93
113
167
132
142
146
111
116
100
101
127
118
141
200
93
93
142
180
140
139
118
165
110
147
75
107
129
186
111
161
156
185
112
176
105
142
112
190
115
125
81
130
138
153
159
99
102
114
124
72
111
137
118
105
103
97
168
109
133
100
211
96
145
125
98
111
162
277
79
190
186
164
97
240
135
129
111
139
86
137
122
127
115
178
201
154
109
166
130
139
135
124
113
132
157
176
152
90
108
229
